!File created by the GAMESS Input Deck Generator Plugin for Avogadro
 $BASIS GBASIS=STO NGAUSS=3 $END
 $CONTRL SCFTYP=RHF RUNTYP=SADPOINT NZVAR=1 mult=1  ICHARG=0 $END
 $STATPT hssend=.t. OPTTOL=0.0005 NSTEP=50 $END
 $STATPT HESS=calc ihrep=5 $END
 $FORCE nvib=2 $END
 $ZMAT DLC=.t. auto=.t. nonvdw(1)=6,17,4,18,17,18,4,6 $END
!$ZMAT IFZMAT(1)=1,6,17,1,4,18,1,17,18 fvalue(1)=2.08,2.01,1.98 $END

 $DATA 
Title
C1
C     6.0    -0.37073606     1.24233532    -0.38687748
C     6.0    -1.15242612     0.01453094     0.15299785
C     6.0    -0.07511962    -0.96343976     0.69155121
C     6.0     1.22753525    -0.57146782    -0.06247969
C     6.0     2.07080984    -1.65449393    -0.75491792
C     6.0     1.02529097     0.68692535    -0.67302835
H     1.0     1.58697307     0.98546094    -1.54600775
H     1.0    -0.35804865     2.05089974     0.34206614
H     1.0    -0.82234758     1.63311160    -1.29657602
H     1.0    -1.69716287    -0.45618111    -0.66204137
H     1.0    -1.87203145     0.28486091     0.92113906
H     1.0    -0.32686415    -2.00217605     0.49003205
H     1.0     0.04505508    -0.85359681     1.76515186
H     1.0     2.22070169    -2.51287913    -0.10846695
H     1.0     3.03921533    -1.25914955    -1.04600418
H     1.0     1.54780078    -1.97872794    -1.65347707
B     5.0     2.33292937     0.92877239     0.92634404
H     1.0     2.34354115    -0.94467092     1.56704485
H     1.0     1.74518716     1.50973761     1.72991014
H     1.0     3.37380600     1.11303031     0.46624446
 $END
