!   File created by the GAMESS Input Deck Generator Plugin for Avogadro
 $BASIS GBASIS=STO NGAUSS=3 $END
 $CONTRL SCFTYP=RHF RUNTYP=ENERGY $END

 $DATA 
Title
C1
C     6.0     0.81338     0.77430     0.62671
C     6.0    -1.43941     0.41736    -0.16246
C     6.0    -0.62408     1.11423     0.67603
C     6.0     0.30563    -1.38846    -0.37903
O     8.0     0.71574    -2.47212    -0.79044
H     1.0    -1.78429    -1.57977    -1.02435
C     6.0    -1.17443    -1.05355    -0.28755
C     6.0    -1.70798    -1.77630     1.49746
C     6.0    -1.06574    -0.86874     2.50897
C     6.0    -1.27009     0.47329     2.45992
H     1.0    -0.72148     1.10277     3.16530
H     1.0    -2.26108     0.82852     2.14802
H     1.0    -0.22705    -1.26699     3.07487
H     1.0    -2.80067    -1.74066     1.49760
H     1.0    -1.30847    -2.79324     1.50521
C     6.0     1.27631    -0.37867     0.12155
H     1.0     2.32763    -0.62577     0.06788
H     1.0     1.50416     1.52964     0.99147
H     1.0    -2.42196     0.79549    -0.42535
H     1.0    -0.84562     2.17147     0.86430
 $END
