!File created by the GAMESS Input Deck Generator Plugin for Avogadro
 $BASIS GBASIS=STO NGAUSS=3 $END
 $CONTRL SCFTYP=RHF RUNTYP=IRC NZVAR=1 mult=1  ICHARG=0 $END
 $STATPT hssend=.t. OPTTOL=0.0005 NSTEP=50 $END
 $STATPT HESS=calc ihrep=5 $END
 $FORCE nvib=2 $END
 $ZMAT DLC=.t. auto=.t. nonvdw(1)=3,10,7,8,7,2,3,2,8,9,9,10 $END
!$ZMAT IFZMAT(1)=1,3,10,1,7,8 fvalue(1)=2.00,2.00 $END
 $irc npoint=50 saddle=.t. tsengy=.t. forwrd=.f. opttol=0.0005 stride=0.2 $end

 $DATA 
Title
C1
C     6.0     0.80813515     0.79626429     0.65297842
C     6.0    -1.47480702     0.35297456    -0.17498767
C     6.0    -0.65855539     1.12289000     0.66729814
C     6.0     0.30885509    -1.40683138    -0.33704117
O     8.0     0.68569440    -2.49688196    -0.74867648
H     1.0    -1.79791009    -1.61294472    -0.95249146
C     6.0    -1.16932321    -1.00362337    -0.30968446
C     6.0    -1.70657897    -1.70544052     1.48441947
C     6.0    -0.98321974    -0.91920125     2.38655186
C     6.0    -1.23003924     0.45575812     2.46405673
H     1.0    -0.62566900     1.04849482     3.14271379
H     1.0    -2.25633717     0.79998481     2.40444946
H     1.0    -0.02661945    -1.28743351     2.73226190
H     1.0    -2.76688051    -1.51119983     1.36677408
H     1.0    -1.45860064    -2.75892138     1.40369499
C     6.0     1.25511861    -0.35454631     0.19093184
H     1.0     2.31074524    -0.59034258     0.15694313
H     1.0     1.48653960     1.54819226     1.04060018
H     1.0    -2.46726823     0.70487845    -0.42462295
H     1.0    -0.88857341     2.17864180     0.77327842
 $END

 $HESS
ENERGY IS     -416.1191946428 E(NUC) IS      517.4269103666
 1  1 8.04716617E-01-5.36259788E-02 2.98297369E-03-3.45815479E-02-6.63802814E-03
 1  2-9.64299554E-04-3.02669118E-01 4.99589660E-02-1.66877728E-02 3.75748915E-02
 1  3-8.65250087E-03-1.34847739E-03-8.04944671E-03-1.24908790E-02-5.09221524E-03
 1  4-1.01244341E-03 1.01852442E-03 4.60283447E-04 9.24687936E-04 3.53910101E-03
 1  5-4.41449078E-03-1.62463220E-03 2.29177901E-03-2.59690421E-03 3.27494648E-04
 1  6 7.29823771E-03 3.76022219E-03-1.53316092E-02-1.25674736E-02 2.38791091E-02
 1  7 7.88801144E-04 4.90062451E-04-1.31612122E-03 1.48047918E-04 5.41839672E-04
 1  8-1.63452717E-03-3.42376747E-04 4.86767461E-05-3.43508556E-04-5.03914153E-04
 1  9-4.09715538E-05 1.60712073E-04 7.03732385E-04-5.87181641E-05-1.08669169E-03
 1 10-2.39711876E-01 1.65244304E-01 6.92469284E-02-3.16599429E-03 3.89378417E-02
 1 11 1.49325583E-02-2.32588741E-01-1.69922543E-01-8.26076892E-02-7.52154642E-04
 1 12-1.01371953E-04-5.47880353E-04-4.85041889E-03-5.27086752E-03 3.21779107E-03
 2  1-5.36259788E-02 1.03762447E+00 3.67665839E-01-1.37388512E-02 2.01775443E-02
 2  2 5.08885045E-03 2.00921477E-02-1.41249988E-01-1.77015683E-02 9.27763361E-04
 2  3-4.32185495E-02-2.28577055E-02-5.59403977E-03 6.91528910E-03 2.14057057E-03
 2  4 1.32983083E-03 4.32949698E-04-6.88959716E-04 3.03406016E-03-3.84129089E-03
 2  5 7.92700762E-03 3.43118994E-04 8.59391298E-05-1.69881330E-03-3.66374605E-03
 2  6-1.19586712E-03 2.71534393E-03-4.54747758E-03 1.96592574E-03-1.64324577E-03
 2  7 6.00877426E-04 1.85038002E-04-5.52296052E-04-2.72284053E-04-3.75443273E-04
 2  8 1.59580130E-03-3.88893947E-04 1.84758410E-04 3.93660620E-05 1.53446574E-04
 2  9-9.66436266E-05 1.80760901E-04-3.39835262E-04 7.91958503E-05 4.74699600E-04
 2 10 1.96173928E-01-6.07454302E-01-2.30440431E-01-6.16918001E-03-1.21171821E-03
 2 11-2.15620426E-03-1.75636766E-01-2.68247428E-01-1.03321816E-01-5.91554839E-04
 2 12-1.43657934E-03-5.15731260E-03 4.19134346E-02 6.76701576E-04-1.60988679E-03
 3  1 2.98297369E-03 3.67665839E-01 3.66362658E-01-3.45404712E-02-3.57997865E-03
 3  2-6.70577258E-03 6.58794615E-03-1.44629742E-02-6.29243716E-02 1.05439455E-03
 3  3-2.61333953E-02-3.13930229E-03-2.89661242E-03 3.58133201E-03 1.92995827E-03
 3  4 4.76358236E-04 1.81384154E-04-3.36802397E-04 2.82167660E-03 8.66291969E-03
 3  5-8.42474666E-03 5.34183962E-04 1.92776783E-03 7.88857248E-03 3.59979981E-03
 3  6-1.02072416E-02-3.19177555E-03 2.76818489E-02 1.03794556E-02-1.93849990E-02
 3  7 1.33215273E-04-2.25407966E-04 1.66229786E-03 6.74859719E-04 1.51550717E-03
 3  8-3.04661460E-03 3.11260654E-04 2.66104355E-04-1.05150678E-04-5.07075418E-05
 3  9 6.87747428E-05-5.19418059E-04 3.27892233E-04 4.49327718E-05-7.67113747E-04
 3 10 7.96223371E-02-2.28504847E-01-1.70286556E-01-2.56553104E-03-3.13800115E-03
 3 11 7.11225912E-03-8.48628852E-02-1.02655902E-01-1.06357753E-01-4.78915062E-03
 3 12-5.56106236E-03 1.29548995E-03 2.89661113E-03 1.74793814E-04-1.06085959E-03
 4  1-3.45815479E-02-1.37388512E-02-3.45404712E-02 8.23731548E-01-1.29331623E-01
 4  2 2.63873964E-01-2.49497207E-01-1.04335777E-01-1.09406364E-01-2.17951773E-04
 4  3 4.27553101E-02 1.01487808E-04-9.25185831E-03 8.21624502E-04 1.52004645E-03
 4  4 8.81694167E-03-2.64158186E-02 3.54463133E-03-1.59865587E-01 1.10646132E-01
 4  5-2.77381150E-02 2.87287507E-03-8.73167471E-03 1.88806850E-02 1.15838719E-03
 4  6-2.68265160E-02-8.99706051E-03 8.36909261E-03 3.71787776E-02-3.08966568E-02
 4  7-1.79617948E-03-1.45341299E-03 3.21598692E-03 4.82540002E-04-8.24054197E-04
 4  8 7.94161175E-03-3.62942557E-05 2.95903961E-04-6.72337024E-04 1.26902679E-03
 4  9-3.26440565E-03 5.50981248E-04-3.54405350E-04-5.56322337E-04 1.29807734E-03
 4 10 3.01662915E-03-4.79121991E-03-1.42751132E-03 8.78643240E-04-5.67744073E-04
 4 11 2.31635770E-04-4.61545575E-03 2.06756808E-03 4.94124962E-04-4.00581685E-01
 4 12 1.18881372E-01-9.33797125E-02 1.02024882E-02 8.19073198E-03 5.40499525E-03
 5  1-6.63802814E-03 2.01775443E-02-3.57997865E-03-1.29331623E-01 7.64554447E-01
 5  2 1.08556300E-01-7.25058443E-02-2.32341925E-01-6.77037727E-03 1.98827393E-02
 5  3-1.77217523E-02 1.76223131E-02-5.60700710E-03 5.29216912E-03-4.50283781E-04
 5  4 3.47250024E-03-1.65090648E-02 1.60851058E-02 8.43500648E-02-3.55156247E-01
 5  5-1.38254921E-01 1.28101413E-02-2.03827443E-02 1.76989943E-01-2.53341282E-02
 5  6-1.13400513E-01-4.48037669E-02 1.59692291E-02 9.59031691E-02-9.50502452E-02
 5  7-3.25158074E-03-1.80707858E-03 4.58826502E-03-3.47181172E-03-2.63248972E-03
 5  8 1.07999237E-02-1.83970175E-03 6.79582051E-04-6.75575122E-04 4.17647877E-03
 5  9 5.26099262E-03-1.47394109E-02 2.45937395E-03 2.01128098E-04-5.12868593E-03
 5 10-2.03005123E-03-3.78730386E-03-1.95596201E-03-1.22729461E-03-1.14595864E-03
 5 11-2.18314890E-04 3.76302623E-03-1.06008588E-03-5.85283123E-04 1.26345365E-01
 5 12-1.17556486E-01 1.73525638E-02-2.19918476E-02-8.56738389E-03-3.97816096E-02
 6  1-9.64299554E-04 5.08885045E-03-6.70577258E-03 2.63873964E-01 1.08556300E-01
 6  2 4.04553190E-01-1.39969776E-01-1.32973763E-01-1.37216389E-01 8.62805126E-03
 6  3-2.36072289E-03 4.26419115E-03-1.64846131E-03 1.40614022E-03 7.79902105E-04
 6  4 7.02357346E-03-3.01926932E-02 7.56297890E-03-2.25474267E-02-8.59678218E-03
 6  5-1.15358423E-01-2.26260332E-03 1.29208284E-02 3.68773539E-02-1.34962236E-02
 6  6-4.62768298E-02-3.49469907E-02-5.87940235E-04 6.74183151E-02-8.83085435E-02
 6  7-7.41912853E-04-1.43777307E-03 2.88812564E-04-3.54767629E-03-5.26610392E-03
 6  8 6.01985765E-03 3.98961975E-03-1.35320826E-03 1.17224986E-03 1.41729024E-03
 6  9 4.79961865E-03-2.94013492E-03 2.28845370E-03 1.54977130E-03-3.28513363E-03
 6 10 2.44032929E-03-9.69736649E-04 8.88828641E-04-2.12741237E-04-6.06600485E-04
 6 11 1.60067634E-04 2.22685941E-03-1.21300305E-03 6.00799839E-04-1.09811332E-01
 6 12 2.19872771E-02-7.18616947E-02 3.90225125E-03 7.52011571E-03-2.54514983E-03
 7  1-3.02669118E-01 2.00921477E-02 6.58794615E-03-2.49497207E-01-7.25058443E-02
 7  2-1.39969776E-01 7.21863537E-01-1.89386323E-02 1.32841797E-01 2.15962702E-03
 7  3-3.96100390E-03-9.69097419E-04-1.74407479E-03 1.03188047E-03-3.94670912E-04
 7  4 9.00099698E-04 4.54178437E-03-4.54059082E-03 1.54667404E-02-2.35685085E-02
 7  5 2.41152701E-02-3.14095170E-03-1.33486175E-03-1.95819066E-02 2.57180523E-03
 7  6 8.19321861E-03-6.25582553E-03-5.53408600E-02 3.71924449E-03 5.86207776E-03
 7  7 4.57370901E-03 3.28016645E-03-9.25603407E-03-5.09949416E-03-9.51365058E-03
 7  8 2.48075404E-02 1.17214731E-03-6.05726849E-04 1.33154583E-03 3.59472817E-04
 7  9-1.21581947E-04 1.70324903E-03-4.46953409E-04 3.46806786E-04 1.56776664E-03
 7 10-1.67517792E-02 2.61027831E-02 3.98743824E-03 1.04211832E-05-1.28610981E-03
 7 11-2.47897503E-04-1.34615513E-02 1.26371804E-02 4.00109455E-03-8.46304749E-03
 7 12-2.49988468E-02-2.43004588E-02-9.24625220E-02 7.68895544E-02-1.28946806E-03
 8  1 4.99589660E-02-1.41249988E-01-1.44629742E-02-1.04335777E-01-2.32341925E-01
 8  2-1.32973763E-01-1.89386323E-02 9.11385536E-01 1.83084419E-01-2.96472660E-03
 8  3-1.28171367E-03 4.25842732E-03 9.35595791E-04 1.19624054E-03 1.19699983E-04
 8  4 4.32074457E-03-7.19281234E-03-1.16193921E-03-2.93752409E-02-3.70114378E-02
 8  5-2.26749696E-02-6.21377063E-04-5.38647472E-03-9.54766896E-03-9.98737560E-03
 8  6-1.78374092E-02 1.23365824E-02-3.31428633E-03-4.67478323E-02 7.74400713E-03
 8  7 4.26384006E-03 3.03531300E-03-7.95733664E-03 1.38341876E-03 6.36063394E-04
 8  8-4.18195316E-03 1.81989160E-03-4.98318060E-04 1.05782312E-03 1.13233361E-03
 8  9-9.93043198E-05 2.02555852E-03-6.65702450E-05 1.26739984E-03 2.06769184E-03
 8 10 4.22636354E-02 2.16640062E-03-1.80789523E-03 1.02983996E-03-2.06677769E-03
 8 11-8.97696248E-03-2.59043929E-02 9.99911737E-03 2.14818586E-03 1.30020743E-02
 8 12 1.04806185E-02 9.70005607E-03 7.53980390E-02-4.48452696E-01-2.07969885E-02
 9  1-1.66877728E-02-1.77015683E-02-6.29243716E-02-1.09406364E-01-6.77037727E-03
 9  2-1.37216389E-01 1.32841797E-01 1.83084419E-01 2.00952480E-01-3.49894278E-03
 9  3 1.44058657E-02-1.91561225E-02 2.26606169E-03-4.04735656E-03 2.46054195E-03
 9  4 1.12352400E-03 2.45608109E-03-4.78787210E-04-2.33048885E-04-1.20922185E-01
 9  5 7.80430017E-02-1.78674158E-02-8.43052958E-03-1.44019961E-01 2.05578027E-02
 9  6 1.80451250E-01 3.85897543E-02-2.37653513E-02-1.80316837E-01 1.07275708E-01
 9  7 1.30393650E-02 1.10322774E-02-2.17511898E-02 7.13589303E-03 9.64396957E-03
 9  8-3.06791459E-02 2.11742157E-03-1.01919152E-03-1.13563925E-03-2.37426381E-03
 9  9-4.34304906E-03 1.15621765E-02-2.84604696E-03-8.24128022E-04 5.08820030E-03
 9 10 1.67301918E-02-1.12458618E-02 2.25814133E-03 5.79876243E-05-5.28905082E-03
 9 11 8.84591904E-03-1.41720996E-02 3.95835079E-03 6.03172158E-03 7.81593102E-04
 9 12-6.51031391E-03 1.32705876E-03-5.80033166E-03-3.76117646E-02-4.50730973E-02
10  1 3.75748915E-02 9.27763361E-04 1.05439455E-03-2.17951773E-04 1.98827393E-02
10  2 8.62805126E-03 2.15962702E-03-2.96472660E-03-3.49894278E-03 6.94445378E-01
10  3-1.86503114E-01-5.37908142E-02-1.93203122E-01 2.42506125E-01 9.43945580E-02
10  4-1.53714127E-02 7.34738718E-03 6.57824638E-03-2.61631323E-01 2.38000456E-02
10  5-1.69431995E-02-1.18782873E-02-6.62068413E-03 2.17164502E-02 2.01638660E-04
10  6-1.97501530E-03-4.55738836E-03-5.69357936E-03 1.88314803E-03-2.72407284E-03
10  7 8.69575350E-04 1.50181952E-04-1.19764947E-03-5.91920600E-04-4.34090909E-04
10  8 9.85192730E-04 1.75097541E-04-2.47783336E-04-2.62157561E-05 1.57222432E-04
10  9 9.18295076E-04-1.28559950E-03 1.14573836E-04 1.47270199E-04-3.79025991E-04
10 10-2.26497875E-01-6.63310607E-02-3.81966447E-02-1.20848527E-02-2.96325418E-02
10 11-1.16314676E-02-5.68422576E-03 2.70758092E-03 1.10084227E-03-3.38638989E-04
10 12-5.08768700E-03-1.63806460E-04-2.50481511E-03-4.73833013E-04-6.29081995E-05
11  1-8.65250087E-03-4.32185495E-02-2.61333953E-02 4.27553101E-02-1.77217523E-02
11  2-2.36072289E-03-3.96100390E-03-1.28171367E-03 1.44058657E-02-1.86503114E-01
11  3 1.09262742E+00 3.54108096E-01 2.37261937E-01-7.76353749E-01-2.87553140E-01
11  4-2.19681303E-02 9.35841709E-03 1.76228317E-03 4.66618452E-03-1.08681746E-01
11  5-1.20628994E-02-1.19541492E-03 2.41591372E-03 1.64675196E-04-5.79032248E-04
11  6-1.90311765E-03-2.32195397E-03 3.31044881E-04 3.96958821E-03-4.91154188E-03
11  7-2.43568864E-04-3.82440760E-04 2.08631741E-04-1.19151369E-04-5.05399325E-04
11  8 9.06120205E-04 4.49433133E-05 5.91063924E-05 3.77111655E-04 3.93413335E-04
11  9-9.24920486E-04 1.24936030E-03-1.85580072E-03-9.83443426E-05 1.67268121E-03
11 10-7.08379082E-02-1.63463550E-01-2.98574545E-02 9.09160815E-03 9.49322920E-03
11 11 2.81151838E-03 1.16872827E-03 9.97862243E-04-7.43487827E-03 1.25955101E-03
11 12-4.83614557E-03-5.29649094E-03-1.05709471E-03 4.49891408E-04 2.66133130E-04
12  1-1.34847739E-03-2.28577055E-02-3.13930229E-03 1.01487808E-04 1.76223131E-02
12  2 4.26419115E-03-9.69097419E-04 4.25842732E-03-1.91561225E-02-5.37908142E-02
12  3 3.54108096E-01 3.86579575E-01 9.44340934E-02-2.88366698E-01-1.85898368E-01
12  4-2.39392744E-02 1.01740394E-02 3.62987738E-03-9.18968491E-03-3.42899593E-02
12  5-8.19695716E-02 2.56129730E-02-2.83450998E-03-2.61406601E-02 6.73117564E-03
12  6 8.23177899E-03 4.69522068E-03-1.33746662E-03-6.79938810E-03 3.43716690E-03
12  7 4.50665032E-04 2.43572518E-04-6.18383125E-04 2.02583357E-05 2.67212792E-04
12  8-4.99342042E-04-1.79188820E-05-2.35012600E-04-1.31145712E-04 6.21520020E-04
12  9 1.13007535E-03-3.08409790E-03-3.59205716E-04-1.16850720E-03 1.67037013E-03
12 10-3.63462740E-02-3.43975806E-02-1.08189078E-01 3.93537051E-03 2.48267605E-03
12 11 4.61993281E-03-7.36119451E-04-6.98748409E-03 1.42449356E-02-2.56824765E-03
12 12-8.58345432E-04 5.24402033E-03-1.30496317E-03 2.76999060E-04 4.40780584E-04
13  1-8.04944671E-03-5.59403977E-03-2.89661242E-03-9.25185831E-03-5.60700710E-03
13  2-1.64846131E-03-1.74407479E-03 9.35595791E-04 2.26606169E-03-1.93203122E-01
13  3 2.37261937E-01 9.44340934E-02 1.89891234E-01-2.68152091E-01-1.05528495E-01
13  4 5.18017852E-03-1.64876116E-03 1.93971876E-04-1.69153672E-02 5.75469455E-02
13  5 2.14201463E-02 2.88792595E-04 3.48399401E-03-9.08340040E-04-9.33743961E-04
13  6-1.49755569E-03 1.21694407E-03 1.85673194E-03 1.91525760E-04-7.70502787E-04
13  7-2.68964965E-04 3.61140228E-05 3.39144641E-04 1.36529402E-04 1.20228505E-04
13  8-8.26485313E-05-1.70061278E-04 2.18711229E-04-1.59842534E-04-6.43023938E-05
13  9-2.65601616E-04 4.32060400E-04 2.99723773E-04 1.18345537E-04-7.91998395E-04
13 10 2.80679640E-02-2.29925723E-02-7.91348096E-03 1.93337958E-03 3.28525894E-03
13 11 1.06022513E-03 1.77071660E-03-6.36100286E-04-4.29722776E-04 1.70101991E-04
13 12 3.07399431E-03 1.76804274E-04 1.00558927E-03 1.21078650E-04-4.09346731E-04
14  1-1.24908790E-02 6.91528910E-03 3.58133201E-03 8.21624502E-04 5.29216912E-03
14  2 1.40614022E-03 1.03188047E-03 1.19624054E-03-4.04735656E-03 2.42506125E-01
14  3-7.76353749E-01-2.88366698E-01-2.68152091E-01 8.47675786E-01 3.35150917E-01
14  4-1.82628919E-03-1.43067225E-04 1.15055612E-03 3.15832385E-02-1.86904446E-02
14  5-1.78296500E-02-2.68270597E-03-2.35715652E-03 3.45887973E-03 4.52748061E-04
14  6 1.24905737E-03-6.01626598E-04-4.18273099E-04-1.12314884E-03 2.70523810E-03
14  7 9.78061291E-05 7.42096210E-05-5.09268523E-05 3.77256453E-05 1.57693942E-04
14  8-4.39312352E-04 9.21787456E-05-1.70721882E-04 6.47732340E-05-2.47823879E-04
14  9 6.08984624E-04-3.13581755E-04 4.34358743E-04 1.91875002E-04-5.51241734E-04
14 10 5.17144923E-03-6.42149622E-02-3.91267043E-02 2.16718789E-03 2.69720923E-03
14 11 1.90178407E-03 1.31285663E-03-2.08529748E-03 5.49627366E-04-7.72767761E-05
14 12-8.81156169E-04 1.01656607E-03 1.86159111E-04-3.88112921E-05 3.41283860E-04
15  1-5.09221524E-03 2.14057057E-03 1.92995827E-03 1.52004645E-03-4.50283781E-04
15  2 7.79902105E-04-3.94670912E-04 1.19699983E-04 2.46054195E-03 9.43945580E-02
15  3-2.87553140E-01-1.85898368E-01-1.05528495E-01 3.35150917E-01 1.63285875E-01
15  4 1.32368026E-03-6.52592781E-04-1.72041030E-04 1.18556520E-02-1.12279872E-02
15  5 1.18048630E-02-2.33219604E-03-3.59497664E-04 4.43672759E-03-7.84957790E-04
15  6-1.68610819E-03-1.58115250E-03 1.71294765E-04 1.65632668E-03-5.27716904E-04
15  7-7.42559747E-05-5.11334710E-05 1.41699232E-04-1.44310937E-06-4.73617190E-05
15  8 7.98467575E-05 8.91144404E-05 3.29133685E-05 5.12916391E-05 2.52421467E-06
15  9-1.50880490E-04 1.61811527E-04-2.19217156E-04 1.34086015E-04 1.25258219E-04
15 10 2.70189436E-03-3.84505472E-02 6.26998078E-03 1.01379215E-03 1.81646643E-03
15 11-4.95196515E-04 8.80912895E-04 1.40878207E-04-2.30887590E-03 2.14563157E-04
15 12-5.54543731E-04-4.28771352E-04 2.59418852E-04-7.78263783E-06-1.15633756E-04
16  1-1.01244341E-03 1.32983083E-03 4.76358236E-04 8.81694167E-03 3.47250024E-03
16  2 7.02357346E-03 9.00099698E-04 4.32074457E-03 1.12352400E-03-1.53714127E-02
16  3-2.19681303E-02-2.39392744E-02 5.18017852E-03-1.82628919E-03 1.32368026E-03
16  4 2.00115863E-01 1.23242490E-01 1.43907123E-01-1.98894428E-01-1.12121399E-01
16  5-1.43402858E-01 3.71070671E-03 3.49062284E-03 1.20766687E-02-1.46852751E-03
16  6-3.38496731E-03-3.40359058E-04 9.88295753E-04 2.68706533E-03-1.91554445E-03
16  7-1.89075948E-04-1.56150654E-04 1.84026434E-04 3.67385998E-05-1.61413513E-04
16  8 2.56785382E-04 1.88439607E-04 1.46589304E-04-6.49312670E-05 9.52307278E-04
16  9 5.03821707E-04 6.55634055E-05 3.40300213E-05 2.00826883E-04-2.81485398E-04
16 10-5.14541953E-03 2.45022014E-03 1.18824868E-03-8.18802702E-04-1.58569396E-03
16 11-5.34813025E-04 4.89794720E-04-1.64242416E-04-6.54807461E-05 4.65884134E-04
16 12-9.89337150E-04 2.74232462E-03 1.02082936E-03 5.12912028E-04 1.76870410E-04
17  1 1.01852442E-03 4.32949698E-04 1.81384154E-04-2.64158186E-02-1.65090648E-02
17  2-3.01926932E-02 4.54178437E-03-7.19281234E-03 2.45608109E-03 7.34738718E-03
17  3 9.35841709E-03 1.01740394E-02-1.64876116E-03-1.43067225E-04-6.52592781E-04
17  4 1.23242490E-01 1.91550913E-01 1.42384249E-01-1.11880232E-01-1.83484896E-01
17  5-1.37066873E-01 3.44491543E-03 3.33306294E-03 1.37475576E-02-1.90893867E-03
17  6-2.69955460E-03-1.54960664E-03 7.06038701E-04 3.77539622E-03-7.20532973E-04
17  7-1.88561243E-04-2.96182329E-04 1.87877509E-04 3.78130592E-05-3.49679509E-04
17  8 2.78076079E-04 3.57841914E-04-9.16407812E-05 1.34820710E-04 5.57982852E-04
17  9 4.53722248E-04-4.03800185E-04 3.43847588E-04 6.73601802E-04-1.12704898E-04
17 10 2.50174438E-03-5.72648315E-04-1.48214093E-03 4.46510294E-04 6.75235299E-04
17 11 3.62580934E-04-1.29639732E-04-7.35140077E-05 1.53074919E-04-1.10187728E-03
17 12 1.71930625E-03 3.13218964E-03-1.27305184E-03-5.59544197E-04-1.01098569E-03
18  1 4.60283447E-04-6.88959716E-04-3.36802397E-04 3.54463133E-03 1.60851058E-02
18  2 7.56297890E-03-4.54059082E-03-1.16193921E-03-4.78787210E-04 6.57824638E-03
18  3 1.76228317E-03 3.62987738E-03 1.93971876E-04 1.15055612E-03-1.72041030E-04
18  4 1.43907123E-01 1.42384249E-01 2.15624038E-01-1.44690535E-01-1.53631843E-01
18  5-2.05942590E-01-9.72373360E-03-8.10704742E-03-2.56505580E-02 3.55492868E-03
18  6 6.01411478E-03 9.72390138E-04-2.59303068E-04-4.35682906E-03 3.68588688E-03
18  7 9.44872572E-05 1.45196184E-04-1.18072877E-05 2.86643287E-05 3.79036761E-04
18  8-6.25959832E-04-3.47821884E-04-3.93545028E-06 3.19984861E-05-1.19260025E-03
18  9-1.11472468E-03 2.27757928E-03-4.91637975E-04-5.46525187E-04 1.55233569E-03
18 10 1.81871272E-03-1.49382619E-04 1.19962946E-03 1.89636609E-04 3.48162644E-04
18 11 2.41491646E-05-2.36926896E-04 1.49329341E-04-1.66450569E-04 1.55997707E-03
18 12 1.49813266E-03-3.53039860E-03-4.47512856E-04-1.54980318E-04 3.54531270E-04
19  1 9.24687936E-04 3.03406016E-03 2.82167660E-03-1.59865587E-01 8.43500648E-02
19  2-2.25474267E-02 1.54667404E-02-2.93752409E-02-2.33048885E-04-2.61631323E-01
19  3 4.66618452E-03-9.18968491E-03-1.69153672E-02 3.15832385E-02 1.18556520E-02
19  4-1.98894428E-01-1.11880232E-01-1.44690535E-01 6.99068893E-01-2.19289382E-02
19  5 1.70576043E-01-5.79121203E-02-1.12635152E-03-2.98245539E-02 8.17761394E-03
19  6 1.40681871E-02-3.41357057E-03-4.19943722E-04-5.20323256E-03 2.67733409E-03
19  7 7.66192724E-05 2.70138085E-04 1.02682690E-04 1.94263956E-04 2.86201714E-04
19  8-1.01453229E-03-9.71058387E-05-3.22588867E-04 8.29204030E-04-6.27754207E-03
19  9-1.27017901E-02 2.82784970E-02 6.36046068E-04 1.57964306E-03-1.56321893E-03
19 10-2.37325318E-02 4.52696676E-03 2.61089324E-03-2.09039111E-04-1.64962373E-03
19 11-2.58555876E-03 5.75353371E-04 9.60896108E-04-5.84525932E-04 2.87303159E-03
19 12 3.96854154E-02 2.81726253E-03-2.03826215E-03-8.22998576E-04-6.92258884E-03
20  1 3.53910101E-03-3.84129089E-03 8.66291969E-03 1.10646132E-01-3.55156247E-01
20  2-8.59678218E-03-2.35685085E-02-3.70114378E-02-1.20922185E-01 2.38000456E-02
20  3-1.08681746E-01-3.42899593E-02 5.75469455E-02-1.86904446E-02-1.12279872E-02
20  4-1.12121399E-01-1.83484896E-01-1.53631843E-01-2.19289382E-02 7.50496573E-01
20  5 3.33417605E-01-1.21709897E-02-4.49016127E-02-1.75798380E-01 3.81512550E-02
20  6 1.00201672E-01 6.61146664E-02-1.05357884E-02-9.31737243E-02 6.95633607E-02
20  7 3.01150536E-03 3.17404047E-03-3.75393153E-03 1.52374165E-03 4.70868368E-03
20  8-8.76703752E-03-3.04876977E-03 3.45657641E-04-2.49262346E-04-4.98776098E-03
20  9-8.14117098E-03 1.57878284E-02-1.19016195E-02-5.67267026E-03 2.59173813E-02
20 10-2.38111582E-02 1.16660633E-02-1.20555320E-03-2.42167982E-03-4.46987275E-03
20 11-1.69957571E-03 4.03317690E-04 3.07292141E-04-1.40991914E-05-7.98129861E-03
20 12-6.23528456E-03-1.62732750E-03-4.14413253E-03-1.43958312E-03 2.32016112E-03
21  1-4.41449078E-03 7.92700762E-03-8.42474666E-03-2.77381150E-02-1.38254921E-01
21  2-1.15358423E-01 2.41152701E-02-2.26749696E-02 7.80430017E-02-1.69431995E-02
21  3-1.20628994E-02-8.19695716E-02 2.14201463E-02-1.78296500E-02 1.18048630E-02
21  4-1.43402858E-01-1.37066873E-01-2.05942590E-01 1.70576043E-01 3.33417605E-01
21  5 3.67198363E-01 2.14721639E-02 6.75621475E-03 9.92235328E-02-2.82825570E-02
21  6-9.46233561E-02-8.39588885E-02 5.40075526E-03 6.44642585E-02-5.32108232E-02
21  7-1.69792365E-03 1.15262014E-04 2.66757657E-03-2.12975179E-03-1.58165491E-03
21  8 5.90093402E-03 2.01340823E-04 1.26536446E-03-1.11975102E-03 4.98555433E-03
21  9 1.00259792E-02-2.18418502E-02 3.96419999E-03 6.87817149E-04-8.97325821E-03
21 10-1.85914313E-02-2.35864593E-03 1.31280071E-02-1.68620447E-03-4.14403357E-03
21 11 1.31133058E-03 3.61047289E-04 2.64823338E-04-6.26124724E-04-3.32872442E-03
21 12 8.94159491E-03 5.98935047E-03-4.28126461E-03-3.26892316E-03-3.84093244E-03
22  1-1.62463220E-03 3.43118994E-04 5.34183962E-04 2.87287507E-03 1.28101413E-02
22  2-2.26260332E-03-3.14095170E-03-6.21377063E-04-1.78674158E-02-1.18782873E-02
22  3-1.19541492E-03 2.56129730E-02 2.88792595E-04-2.68270597E-03-2.33219604E-03
22  4 3.71070671E-03 3.44491543E-03-9.72373360E-03-5.79121203E-02-1.21709897E-02
22  5 2.14721639E-02 8.52829884E-01-3.78574967E-02 1.64514422E-01-2.38708523E-01
22  6-7.11027684E-02-1.39713225E-01 1.27532344E-02-1.74994416E-02 1.74025936E-02
22  7 2.01595125E-03 3.46400344E-03-4.45324680E-03 1.32361489E-03-9.65040043E-04
22  8 4.84761014E-04-9.51925192E-03-2.68381077E-02-2.57184458E-02-4.52995467E-01
22  9 6.50252482E-02-2.41788747E-02-1.02707311E-01 8.71777243E-02-2.36053573E-03
22 10 1.55656554E-03-3.32146867E-04-3.30131898E-03-3.27268995E-05-4.84947888E-05
22 11 2.06050602E-04 4.24541505E-04-1.93476322E-04 1.77750872E-04 7.34230303E-04
22 12-4.87546403E-04 5.37249287E-04 8.87406209E-06-2.70145313E-04 9.69447523E-04
23  1 2.29177901E-03 8.59391298E-05 1.92776783E-03-8.73167471E-03-2.03827443E-02
23  2 1.29208284E-02-1.33486175E-03-5.38647472E-03-8.43052958E-03-6.62068413E-03
23  3 2.41591372E-03-2.83450998E-03 3.48399401E-03-2.35715652E-03-3.59497664E-04
23  4 3.49062284E-03 3.33306294E-03-8.10704742E-03-1.12635152E-03-4.49016127E-02
23  5 6.75621475E-03-3.78574967E-02 8.77783971E-01 1.68150653E-01-9.91732846E-02
23  6-2.38804770E-01-1.44445665E-01-2.60911594E-02-3.47344905E-02-2.63609304E-02
23  7 2.47847014E-03-8.08260989E-03 2.39424974E-04 3.47437186E-05 1.09474255E-03
23  8-3.86225011E-06 1.15312292E-02 9.99229470E-03 1.02246654E-02 6.88930312E-02
23  9-9.31945403E-02 3.40752234E-04 8.54797526E-02-4.48607697E-01-1.28981144E-02
23 10 5.20619958E-04 3.56683794E-04 5.18521653E-04 4.54162670E-04 5.23353268E-04
23 11-1.34990062E-04 1.02299451E-04 1.43822943E-05-2.21815994E-04 1.85796708E-03
23 12-4.40311117E-04 1.07636954E-03 3.16840979E-04 1.29206327E-03 1.64176404E-03
24  1-2.59690421E-03-1.69881330E-03 7.88857248E-03 1.88806850E-02 1.76989943E-01
24  2 3.68773539E-02-1.95819066E-02-9.54766896E-03-1.44019961E-01 2.17164502E-02
24  3 1.64675196E-04-2.61406601E-02-9.08340040E-04 3.45887973E-03 4.43672759E-03
24  4 1.20766687E-02 1.37475576E-02-2.56505580E-02-2.98245539E-02-1.75798380E-01
24  5 9.92235328E-02 1.64514422E-01 1.68150653E-01 2.03893312E-01-1.07657835E-01
24  6-4.42648510E-03-1.55683696E-01-1.12084944E-02-1.27081354E-01 9.29164567E-02
24  7 8.99859576E-04 2.24045780E-03-1.89992351E-04 3.06234264E-03 7.76199328E-03
24  8-1.54623660E-02-1.86132173E-04-9.22429126E-03-2.08215099E-03-3.98224098E-02
24  9-1.29666666E-02-3.44301504E-02-8.14858841E-03-2.72301997E-02-4.86247581E-02
24 10-1.04189875E-05-3.50904616E-03 2.94069920E-03 8.74567730E-05 6.35476139E-04
24 11-1.21751909E-03-2.36168969E-05 7.58692993E-04-1.44121721E-03 1.97465399E-03
24 12-1.09609371E-03-8.82316512E-04-3.24333852E-03-1.32933115E-03 7.64869105E-03
25  1 3.27494648E-04-3.66374605E-03 3.59979981E-03 1.15838719E-03-2.53341282E-02
25  2-1.34962236E-02 2.57180523E-03-9.98737560E-03 2.05578027E-02 2.01638660E-04
25  3-5.79032248E-04 6.73117564E-03-9.33743961E-04 4.52748061E-04-7.84957790E-04
25  4-1.46852751E-03-1.90893867E-03 3.55492868E-03 8.17761394E-03 3.81512550E-02
25  5-2.82825570E-02-2.38708523E-01-9.91732846E-02-1.07657835E-01 7.41180933E-01
25  6-1.24604034E-01 2.97427278E-01-1.51500944E-01 1.03128486E-01-3.35948679E-02
25  7 7.01443056E-03-2.57083334E-02 4.64368106E-03 4.08473432E-03 4.16009454E-02
25  8-2.16091626E-03-3.73889389E-01 1.20816994E-01-1.19720039E-01-8.08811337E-03
25  9-2.07404620E-02-3.91324742E-02 9.36881784E-03 8.03079435E-03 7.42868724E-03
25 10 8.21914758E-04-3.31238605E-06-5.47386113E-04 8.47296079E-05 9.37779100E-05
25 11-4.06497311E-04-2.76398096E-04-1.90439998E-04 5.67643627E-04-2.68645233E-05
25 12-9.70426961E-05 1.65731467E-04-9.99969969E-05-2.84871253E-04 1.10702644E-03
26  1 7.29823771E-03-1.19586712E-03-1.02072416E-02-2.68265160E-02-1.13400513E-01
26  2-4.62768298E-02 8.19321861E-03-1.78374092E-02 1.80451250E-01-1.97501530E-03
26  3-1.90311765E-03 8.23177899E-03-1.49755569E-03 1.24905737E-03-1.68610819E-03
26  4-3.38496731E-03-2.69955460E-03 6.01411478E-03 1.40681871E-02 1.00201672E-01
26  5-9.46233561E-02-7.11027684E-02-2.38804770E-01-4.42648510E-03-1.24604034E-01
26  6 7.78044441E-01 8.63000530E-02 8.73639113E-02-3.60757973E-01-1.38306508E-01
26  7 2.74066007E-03-1.44920955E-02 1.48294806E-02-8.03723728E-03-1.52612205E-02
26  8 2.16955072E-02 1.29079031E-01-1.23246840E-01 3.11090751E-02 7.85970684E-03
26  9 1.49206394E-02-6.76213302E-03-1.98466949E-02-8.99011667E-03-3.87780282E-02
26 10-3.30630922E-04 3.57059205E-03-1.92096214E-03-3.78582779E-04-1.06138409E-03
26 11 1.47922170E-03 1.68810469E-04-4.96931025E-04 1.14750361E-03-1.33819102E-03
26 12 6.79858621E-04-6.08269513E-04 2.55043091E-03 1.48153193E-03-7.66206303E-03
27  1 3.76022219E-03 2.71534393E-03-3.19177555E-03-8.99706051E-03-4.48037669E-02
27  2-3.49469907E-02-6.25582553E-03 1.23365824E-02 3.85897543E-02-4.55738836E-03
27  3-2.32195397E-03 4.69522068E-03 1.21694407E-03-6.01626598E-04-1.58115250E-03
27  4-3.40359058E-04-1.54960664E-03 9.72390138E-04-3.41357057E-03 6.61146664E-02
27  5-8.39588885E-02-1.39713225E-01-1.44445665E-01-1.55683696E-01 2.97427278E-01
27  6 8.63000530E-02 4.49118913E-01-2.23365922E-02 7.90264043E-03-1.21612582E-01
27  7 5.57363762E-03-3.20442666E-02 8.62889498E-03 2.39695990E-04 1.84858453E-03
27  8 5.57331605E-03-1.38095376E-01 3.53172245E-02-9.02488684E-02 4.28351318E-03
27  9 3.39614783E-03-1.24212010E-02 3.67192773E-03 7.71662318E-03 1.02960084E-03
27 10 4.23881557E-04 2.83949216E-03-2.21786694E-03-9.42348221E-05-4.11929798E-04
27 11 5.89292777E-04 1.01486686E-03-4.15421439E-04-1.77989151E-04 3.60348421E-03
27 12-1.41489980E-03 1.26143054E-03 2.58818146E-03 1.52177798E-03-4.41780249E-03
28  1-1.53316092E-02-4.54747758E-03 2.76818489E-02 8.36909261E-03 1.59692291E-02
28  2-5.87940235E-04-5.53408600E-02-3.31428633E-03-2.37653513E-02-5.69357936E-03
28  3 3.31044881E-04-1.33746662E-03 1.85673194E-03-4.18273099E-04 1.71294765E-04
28  4 9.88295753E-04 7.06038701E-04-2.59303068E-04-4.19943722E-04-1.05357884E-02
28  5 5.40075526E-03 1.27532344E-02-2.60911594E-02-1.12084944E-02-1.51500944E-01
28  6 8.73639113E-02-2.23365922E-02 8.32633344E-01-1.02957206E-01 1.91119582E-01
28  7-2.01091708E-01-1.07030869E-01-1.50433337E-01-4.30289504E-01 1.12620774E-01
28  8-1.36044511E-02 1.69120936E-03 3.95750732E-02 3.94075843E-03 1.16836208E-03
28  9-9.82313683E-04 3.87032339E-03-7.78151795E-04-6.01589785E-04-6.80558628E-03
28 10-5.34880803E-05-2.19242347E-03 5.64527526E-04 9.76410445E-04 1.04530885E-03
28 11-1.81057085E-03-1.09143501E-05 1.47793640E-04-8.40911518E-04-2.50825814E-04
28 12-8.79826215E-05 2.12787864E-04 3.24847392E-04 1.00019482E-03 2.81269615E-05
29  1-1.25674736E-02 1.96592574E-03 1.03794556E-02 3.71787776E-02 9.59031691E-02
29  2 6.74183151E-02 3.71924449E-03-4.67478323E-02-1.80316837E-01 1.88314803E-03
29  3 3.96958821E-03-6.79938810E-03 1.91525760E-04-1.12314884E-03 1.65632668E-03
29  4 2.68706533E-03 3.77539622E-03-4.35682906E-03-5.20323256E-03-9.31737243E-02
29  5 6.44642585E-02-1.74994416E-02-3.47344905E-02-1.27081354E-01 1.03128486E-01
29  6-3.60757973E-01 7.90264043E-03-1.02957206E-01 7.37489718E-01 3.13457427E-01
29  7-1.03362929E-01-1.78073746E-01-1.53952325E-01 1.19337163E-01-1.03269407E-01
29  8-3.01974513E-02-7.47714202E-03-8.12108678E-03-3.81583876E-03-2.11435252E-03
29  9-3.77327836E-03 1.24460016E-02-3.21538287E-03-1.31120964E-03-2.17024693E-04