!File created by the GAMESS Input Deck Generator Plugin for Avogadro
 $BASIS GBASIS=STO NGAUSS=3 $END
 $CONTRL SCFTYP=RHF RUNTYP=SADPOINT NZVAR=1 mult=1  ICHARG=0 $END
 $STATPT hssend=.t. OPTTOL=0.0005 NSTEP=50 $END
 $STATPT HESS=calc ihrep=5 $END
 $FORCE nvib=2 $END
 $ZMAT DLC=.t. auto=.t. nonvdw(1)=3,10,7,8,7,2,3,2,8,9,9,10 $END
!$ZMAT IFZMAT(1)=1,3,10,1,7,8 fvalue(1)=2.00,2.00 $END

 $DATA 
Title
C1
C     6.0     0.80813515     0.79626429     0.65297842
C     6.0    -1.47480702     0.35297456    -0.17498767
C     6.0    -0.65855539     1.12289000     0.66729814
C     6.0     0.30885509    -1.40683138    -0.33704117
O     8.0     0.68569440    -2.49688196    -0.74867648
H     1.0    -1.79791009    -1.61294472    -0.95249146
C     6.0    -1.16932321    -1.00362337    -0.30968446
C     6.0    -1.70657897    -1.70544052     1.48441947
C     6.0    -0.98321974    -0.91920125     2.38655186
C     6.0    -1.23003924     0.45575812     2.46405673
H     1.0    -0.62566900     1.04849482     3.14271379
H     1.0    -2.25633717     0.79998481     2.40444946
H     1.0    -0.02661945    -1.28743351     2.73226190
H     1.0    -2.76688051    -1.51119983     1.36677408
H     1.0    -1.45860064    -2.75892138     1.40369499
C     6.0     1.25511861    -0.35454631     0.19093184
H     1.0     2.31074524    -0.59034258     0.15694313
H     1.0     1.48653960     1.54819226     1.04060018
H     1.0    -2.46726823     0.70487845    -0.42462295
H     1.0    -0.88857341     2.17864180     0.77327842
 $END
