!File created by the GAMESS Input Deck Generator Plugin for Avogadro
 $BASIS GBASIS=STO NGAUSS=3 $END
 $CONTRL SCFTYP=RHF RUNTYP=SADPOINT NZVAR=1 mult=1  ICHARG=0 $END
 $STATPT hssend=.t. OPTTOL=0.0005 NSTEP=50 $END
 $STATPT HESS=calc ihrep=5 $END
 $FORCE nvib=2 $END
 $ZMAT DLC=.t. auto=.t. nonvdw(1)=3,10,7,8,7,2,3,2,8,9,9,10 $END
!$ZMAT IFZMAT(1)=1,3,10,1,7,8 fvalue(1)=2.00,2.00 $END

 $DATA 
Title
C1
C     6.0     0.80311507     0.78971434     0.67040050
C     6.0    -1.47792208     0.34402871    -0.16047506
C     6.0    -0.67888582     1.09610844     0.73102760
C     6.0     0.30525166    -1.41436207    -0.31752723
O     8.0     0.68461597    -2.49164224    -0.75436050
H     1.0    -1.79739559    -1.62991488    -0.91388756
C     6.0    -1.18804824    -1.03447950    -0.23842534
C     6.0    -1.68807602    -1.67897010     1.41210854
C     6.0    -0.97943801    -0.90850282     2.36072063
C     6.0    -1.20154023     0.48490447     2.39358544
H     1.0    -0.60201484     1.05999506     3.09296918
H     1.0    -2.23254323     0.82389098     2.38340092
H     1.0    -0.03043864    -1.28430724     2.71778083
H     1.0    -2.75764012    -1.50849533     1.33762336
H     1.0    -1.45154512    -2.73807549     1.36516345
C     6.0     1.25223196    -0.35080117     0.19119436
H     1.0     2.30939507    -0.57261181     0.12518583
H     1.0     1.48009622     1.55163753     1.04087007
H     1.0    -2.46224833     0.70125020    -0.43150637
H     1.0    -0.89463073     2.15908265     0.80086148
 $END
