!   File created by the GAMESS Input Deck Generator Plugin for Avogadro
 $BASIS GBASIS=STO NGAUSS=3 $END
 $CONTRL SCFTYP=RHF RUNTYP=ENERGY $END

 $DATA 
Title
C1
C     6.0    -0.60124     1.38217     0.00864
C     6.0    -1.35321     0.07590    -0.17493
C     6.0    -0.34641    -1.03023     0.12697
C     6.0     1.07244    -0.35072    -0.02978
C     6.0     0.79728     0.97479    -0.30335
H     1.0    -0.66876     1.76260     1.03286
H     1.0    -0.96950     2.14679    -0.68091
H     1.0    -1.70176    -0.01478    -1.21191
H     1.0    -2.23669     0.01600     0.46878
H     1.0    -0.44625    -1.85737    -0.58474
H     1.0    -0.50561    -1.42569     1.13659
H     1.0     1.73686    -0.77139    -0.84101
H     1.0     1.48614     1.62950    -0.82480
Br    35.0     2.16391    -0.73389     1.36207
Br    35.0     3.03996    -3.55449     1.87161
 $END
