!   File created by the GAMESS Input Deck Generator Plugin for Avogadro
 $BASIS GBASIS=STO NGAUSS=3 $END
 $CONTRL SCFTYP=RHF RUNTYP=SADPOINT NZVAR=1 mult=1  ICHARG=0 $END
 $STATPT hssend=.t. OPTTOL=0.0005 NSTEP=50 $END
 $STATPT HESS=calc ihrep=5 $END
 $FORCE nvib=2 $END
 $ZMAT DLC=.t. auto=.t. nonvdw(1)=4,14,4,5,14,5,15,5 $END
!$ZMAT IFZMAT(1)=1,4,14,1,14,15 fvalue(1)=2.01,2.20 $END

 $DATA 
Title
C1
C     6.0    -0.32404765     1.36948299     0.73583418
C     6.0    -1.13168406     0.06639479     0.48575938
C     6.0    -0.37060976    -0.67474347    -0.64280725
C     6.0     1.09974670    -0.21552059    -0.47082970
C     6.0     1.03362918     1.09119308     0.13225538
H     1.0    -0.27136046     1.64004028     1.79157448
H     1.0    -0.76598698     2.22108221     0.21107264
H     1.0    -2.16041446     0.27586591     0.20787175
H     1.0    -1.14347112    -0.54055262     1.38769281
H     1.0    -0.71744782    -0.35106236    -1.62227261
H     1.0    -0.47391328    -1.75544739    -0.57955796
H     1.0     1.71677434    -0.33636701    -1.35972655
H     1.0     1.86717379     1.78755891     0.15462473
Br    35.0     1.92645204    -0.97012365     0.95157403
Br    35.0     3.14784551    -3.42578030     2.16728282
 $END
